set T := t1 t2 t3 t4 t5 t6 t7 t8 t9 t10 t11 t12 t13 t14 t15 t16 t17 t18 t19 t20 t21 t22 t23 t24 t25 t26 t27 t28 t29 t30 t31 t32 t33 t34 t35 t36 t37 t38 t39 t40 t41 t42 t43 t44 t45 t46 t47 t48 t49 t50;
set S := s1 s2;
param N := 20;
set K := 1 2 3 4 5 6 7 8 9 10 11 12 13 14 15 16 17 18 19 20;

param p : s1 s2 :=
t1 7 7 
t2 1 5 
t3 9 8 
t4 7 5 
t5 8 6 
t6 10 4 
t7 9 3 
t8 5 3 
t9 2 10 
t10 5 9 
t11 10 3 
t12 5 2 
t13 2 6 
t14 8 9 
t15 2 6 
t16 7 6 
t17 10 4 
t18 9 8 
t19 8 9 
t20 5 1 
t21 9 1 
t22 2 7 
t23 1 10 
t24 8 6 
t25 4 6 
t26 2 4 
t27 10 4 
t28 4 3 
t29 9 8 
t30 2 2 
t31 6 9 
t32 8 2 
t33 5 9 
t34 5 2 
t35 9 6 
t36 9 4 
t37 10 9 
t38 10 5 
t39 8 2 
t40 10 7 
t41 6 10 
t42 4 5 
t43 3 4 
t44 3 1 
t45 10 5 
t46 8 2 
t47 2 3 
t48 3 1 
t49 2 9 
t50 7 9 
;

param d :=
t1 8
t2 12
t3 7
t4 7
t5 10
t6 8
t7 11
t8 11
t9 9
t10 5
t11 9
t12 5
t13 11
t14 9
t15 7
t16 7
t17 4
t18 8
t19 5
t20 7
t21 9
t22 6
t23 9
t24 10
t25 4
t26 5
t27 6
t28 7
t29 4
t30 12
t31 5
t32 4
t33 5
t34 7
t35 5
t36 10
t37 5
t38 9
t39 5
t40 4
t41 4
t42 7
t43 6
t44 5
t45 11
t46 7
t47 4
t48 4
t49 12
t50 10
;

param r :=
s1 19
s2 11
;
